50
6507

298 236
78 506
61 340
642 520
817 238
746 485
940 413
450 95
397 440
411 336
179 288
357 124
883 482
907 499
348 170
94 472
694 386
984 132
38 730
581 301
828 326
28 94
70 912
315 727
149 352
457 831
586 771
400 264
754 578
77 302
848 224
829 938
527 457
882 166
381 340
464 16
752 984
724 628
376 836
759 218
256 296
272 868
182 561
865 389
518 879
126 565
39 570
157 642
891 914
443 28
